--- Job TestLoop3.gms Start 06/25/21 16:54:15 32.2.0 rc62c018 WEX-WEI x86 64bit/MS Windows
--- Applying:
    C:\GAMS\32\gmsprmNT.txt
--- GAMS Parameters defined
    Input C:\Users\charl\OneDrive\Dokumente\6.Semester\Bachelor-Arbeit\bachelor-thesis\bachelor-thesis\SampleRun_Environment\900Scens\tol05\Scenario2\TestLoop3.gms
    PageSize 0
    ScrDir C:\Users\charl\OneDrive\Dokumente\6.Semester\Bachelor-Arbeit\bachelor-thesis\bachelor-thesis\SampleRun_Environment\900Scens\tol05\Scenario2\225c\
    SysDir C:\GAMS\32\
    LogOption 3
    ErrMsg 1
    ErrorLog 99
    IDE 1
    LstTitleLeftAligned 1
GAMS 32.2.0   Copyright (C) 1987-2020 GAMS Development. All rights reserved
Licensee: Small MUD - 5 User License                     S200323/0001AN-GEN
          Friedrich-Alexander-Universitaet Erlangen-Nurnberg         DC7699
          C:\GAMS\32\gamslice.txt
--- Starting compilation
--- TestLoop3.gms(19) 2 Mb
--- . inputME.gms(14) 3 Mb
--- .. solar_scenarios_900_2.csv(901) 3 Mb
--- . inputME.gms(36) 3 Mb
--- .. scenario_sorted_900_2_05.csv(901) 4 Mb
--- . inputME.gms(116) 4 Mb
--- .. battery_revenue.csv(25) 4 Mb
--- . inputME.gms(185) 4 Mb
--- TestLoop3.gms(20) 4 Mb
--- . subgradient_parameters.gms(33) 4 Mb
--- TestLoop3.gms(22) 4 Mb
--- . equations_all.gms(76) 4 Mb
--- TestLoop3.gms(71) 4 Mb
--- . lp_lowerbound.gms(12) 4 Mb
--- TestLoop3.gms(72) 4 Mb
--- . heuristic_upperbound.gms(59) 4 Mb
--- TestLoop3.gms(109) 4 Mb
--- . plain_lr.gms(12) 4 Mb
--- TestLoop3.gms(115) 4 Mb
--- . LR_updatesMe.gms(17) 4 Mb
--- .. stepsize3.gms(21) 4 Mb
--- . LR_updatesMe.gms(42) 4 Mb
--- TestLoop3.gms(144) 4 Mb
--- Starting execution: elapsed 0:00:00.179
--- TestLoop3.gms(2159) 10 Mb
--- Generating MIP model schedule
--- TestLoop3.gms(2094) 10 Mb
--- Starting Equ Objective: elapsed 0:00:00.480
--- TestLoop3.gms(2096) 12 Mb
--- Starting Equ Const1: elapsed 0:00:00.762
--- TestLoop3.gms(2102) 25 Mb
--- Starting Equ Const_chance_1: elapsed 0:00:00.793
--- TestLoop3.gms(2109) 32 Mb
--- Starting Equ Const_chance_2: elapsed 0:00:00.833
--- TestLoop3.gms(2160) 32 Mb
---   42,302 rows  65,725 columns  191,725 non-zeroes
---   900 discrete-columns
--- Executing CPLEX (Solvelink=2): elapsed 0:00:00.986

IBM ILOG CPLEX   32.2.0 rc62c018 Released Aug 26, 2020 WEI x86 64bit/MS Window
--- GAMS/Cplex Link licensed for continuous and discrete problems.
Cplex 12.10.0.0

Reading data...
Starting Cplex...
Space for names approximately 2.68 Mb
Use option 'names no' to turn use of names off
Version identifier: 12.10.0.0 | 2019-11-26 | 843d4de2ae
CPXPARAM_Advance                                 0
CPXPARAM_Threads                                 8
CPXPARAM_Parallel                                1
CPXPARAM_MIP_Display                             4
CPXPARAM_TimeLimit                               4200
CPXPARAM_Tune_TimeLimit                          840
CPXPARAM_MIP_Tolerances_AbsMIPGap                0.001
CPXPARAM_MIP_Tolerances_MIPGap                   0.001
CPXPARAM_WorkDir                                 "C:\Users\charl\OneDrive\Dokumente\6.Semester\Bachelor-Arbeit\bachelor-thesis\bachelor-thesis\SampleRun_Environment\900Scens\tol05\Scenario2\225c\"
Found incumbent of value 0.000000 after 0.02 sec. (2.66 ticks)
Tried aggregator 1 time.
MIP Presolve eliminated 1 rows and 2701 columns.
Reduced MIP has 42301 rows, 63024 columns, and 167400 nonzeros.
Reduced MIP has 900 binaries, 0 generals, 0 SOSs, and 0 indicators.
Presolve time = 0.11 sec. (74.45 ticks)
Probing time = 0.08 sec. (36.79 ticks)
Cover probing fixed 1 vars, tightened 23 bounds.
Tried aggregator 1 time.
Detecting symmetries...
MIP Presolve eliminated 900 rows and 1 columns.
MIP Presolve modified 102 coefficients.
Reduced MIP has 41401 rows, 63023 columns, and 165600 nonzeros.
Reduced MIP has 900 binaries, 0 generals, 0 SOSs, and 0 indicators.
Presolve time = 0.20 sec. (97.73 ticks)
Probing time = 0.03 sec. (4.19 ticks)
MIP emphasis: balance optimality and feasibility.
MIP search method: dynamic search.
Parallel mode: deterministic, using up to 8 threads.
Parallel mode: deterministic, using up to 2 threads for parallel tasks at root LP.
Parallel mode: deterministic, using up to 6 threads for concurrent optimization:
 * Starting dual Simplex on 1 thread...
 * Starting Barrier on 4 threads...
 * Starting primal Simplex on 1 thread...
Initializing dual steep norms . . .

Iteration log . . .
Iteration:     1   Dual objective     =          -497.954570
Perturbation started.
Iteration:   101   Dual objective     =          -497.954570
Iteration:   626   Dual objective     =          -497.909428
Iteration:  1394   Dual objective     =          -497.775905
Iteration:  2129   Dual objective     =          -497.121593
Iteration:  2932   Dual objective     =          -496.142660
Iteration:  3697   Dual objective     =          -494.780776
Iteration:  4487   Dual objective     =          -492.891982
Iteration:  5273   Dual objective     =          -490.346725
Iteration:  6073   Dual objective     =          -487.143571
Iteration:  6860   Dual objective     =          -482.549069
Iteration:  7514   Dual objective     =          -473.513573
Iteration:  8351   Dual objective     =          -464.690310
Iteration:  8917   Dual objective     =          -456.440190
Iteration:  9509   Dual objective     =          -451.010617
Removing perturbation.

Root node processing (before b&c):
  Real time             =    4.83 sec. (760.62 ticks)
Parallel b&c, 8 threads:
  Real time             =    0.00 sec. (0.00 ticks)
  Sync time (average)   =    0.00 sec.
  Wait time (average)   =    0.00 sec.
                          ------------
Total (root+branch&cut) =    4.83 sec. (760.62 ticks)
MIP status(113): aborted
Cplex Time: 4.83sec (det. 760.81 ticks)
Fixing integer variables, and solving final LP...
Version identifier: 12.10.0.0 | 2019-11-26 | 843d4de2ae
CPXPARAM_Advance                                 2
CPXPARAM_Threads                                 8
CPXPARAM_Parallel                                1
CPXPARAM_MIP_Display                             4
CPXPARAM_TimeLimit                               4200
CPXPARAM_Tune_TimeLimit                          840
CPXPARAM_MIP_Tolerances_AbsMIPGap                0.001
CPXPARAM_MIP_Tolerances_MIPGap                   0.001
CPXPARAM_WorkDir                                 "C:\Users\charl\OneDrive\Dokumente\6.Semester\Bachelor-Arbeit\bachelor-thesis\bachelor-thesis\SampleRun_Environment\900Scens\tol05\Scenario2\225c\"
Parallel mode: deterministic, using up to 8 threads for concurrent optimization:
 * Starting dual Simplex on 1 thread...
 * Starting Barrier on 6 threads...
 * Starting primal Simplex on 1 thread...
Tried aggregator 1 time.
LP Presolve eliminated 1908 rows and 3602 columns.
Reduced LP has 40394 rows, 62123 columns, and 140982 nonzeros.
Presolve time = 0.23 sec. (72.03 ticks)
Initializing dual steep norms . . .

Iteration log . . .
Iteration:     1   Dual objective     =          -424.297884
Perturbation started.
Iteration:   202   Dual objective     =          -352.642359
Iteration:  1434   Dual objective     =          -323.008498
Iteration:  2303   Dual objective     =          -321.981451
Iteration:  2698   Dual objective     =          -321.663216
Iteration:  3724   Dual objective     =          -320.992116
Iteration:  4319   Dual objective     =          -320.214484
Iteration:  5787   Dual objective     =          -312.313859
Iteration:  6409   Dual objective     =          -303.856640
Iteration:  7629   Dual objective     =          -283.255413
Iteration:  8477   Dual objective     =          -271.005529
Iteration:  9201   Dual objective     =          -255.110138
Iteration:  9856   Dual objective     =          -253.234000
Iteration: 10473   Dual objective     =          -250.867139
Iteration: 11231   Dual objective     =          -249.789490
Removing perturbation.
Fixed MIP status(13): user aborted
Cplex Time: 2.27sec (det. 494.02 ticks)
Final solve did not return an optimal solution.
Returning a primal only solution to GAMS (marginals all set to NA).

Problem aborted.

MIP Solution:            0.000000    (0 iterations, 0 nodes)
Best possible:        -497.954570
Absolute gap:          497.954570
Relative gap:            1.000000

--- Reading solution for model schedule
***
*** Solver did not provide marginals for model schedule
***
--- Executing after solve: elapsed 0:00:08.525
--- TestLoop3.gms(2195) 32 Mb
--- Generating RMIP model schedule
--- TestLoop3.gms(2094) 32 Mb
--- Starting Equ Objective: elapsed 0:00:08.525
--- TestLoop3.gms(2096) 32 Mb
--- Starting Equ Const1: elapsed 0:00:08.849
*** Error at line 2094: Execution halted: Triggered by pending CtrlC event
--- TestLoop3.gms(2196) 32 Mb 1 Error
*** SOLVE aborted
--- Putfile TestingFile3 C:\Users\charl\OneDrive\Dokumente\6.Semester\Bachelor-Arbeit\bachelor-thesis\bachelor-thesis\SampleRun_Environment\900Scens\tol05\Scenario2\TestingFileOnly1.csv
--- Profile Summary (3410 records processed)
     7.500   0.032GB      2160 Solve Alg  schedule
     0.313   0.032GB      2094 Equation   Objective (1)
     0.282   0.012GB      2094 Equation   Objective (1)
     0.266   0.005GB      2017 Loop       
     0.140   0.032GB      2160 Solve Fini schedule (191725)
     0.047   0.032GB      2160 Solve Read schedule
     0.031   0.025GB      2096 Equation   Const1 (20700)
     0.031   0.032GB      2102 Equation   Const_chance_1 (21600)
     0.016   0.005GB      2022 Assignment dummy (1)
     0.016   0.005GB      2018 Loop       
--- TestLoop3.gms(2196) 32 Mb 1 Error
*** Status: Execution error(s)
--- Job TestLoop3.gms Stop 06/25/21 16:54:24 elapsed 0:00:08.859
